12248 38187
58180 36088
40422 50539
18513 38436
16182 34142
22619 7167
47182 1146
607 23290
39458 5105
13529 22677
58057 63137
21120 6918
86 4933
62546 21863
38915 27479
48938 41333
34518 49502
33816 58489
58553 28215
17108 40730
39437 40447
25360 32222
25866 15269
23726 48574
2566 49896
39408 64373
4852 35271
37148 18272
9929 14084
11327 11938
32176 2479
7692 24402
43564 63273
44487 64947
36667 11224
33526 31034
57563 51969
43485 8287
62991 28136
41509 24681
32977 46855
2262 48142
1334 56779
56570 46627
